GLPSOL--GLPK LP/MIP Solver 5.0
Parameter(s) specified in the command line:
 --lp ../modeles/3_314.lp --log 3_314.log
Reading problem data from '../modeles/3_314.lp'...
955 rows, 1890 columns, 6603 non-zeros
942 integer variables, all of which are binary
2854 lines were read
GLPK Integer Optimizer 5.0
955 rows, 1890 columns, 6603 non-zeros
942 integer variables, all of which are binary
Preprocessing...
930 constraint coefficient(s) were reduced
955 rows, 1887 columns, 6600 non-zeros
942 integer variables, all of which are binary
Scaling...
 A: min|aij| =  1.623e-04  max|aij| =  4.000e+00  ratio =  2.465e+04
GM: min|aij| =  7.981e-02  max|aij| =  1.253e+01  ratio =  1.570e+02
EQ: min|aij| =  6.369e-03  max|aij| =  1.000e+00  ratio =  1.570e+02
2N: min|aij| =  5.193e-03  max|aij| =  1.770e+00  ratio =  3.409e+02
Constructing initial basis...
Size of triangular part is 955
Solving LP relaxation...
GLPK Simplex Optimizer 5.0
955 rows, 1887 columns, 6600 non-zeros
      0: obj =   6.000000000e+00 inf =   1.450e+01 (7)
     56: obj =   4.468890106e-01 inf =   0.000e+00 (0)
*   201: obj =  -1.731959124e+00 inf =   6.549e-16 (0)
OPTIMAL LP SOLUTION FOUND
Integer optimization begins...
Long-step dual simplex will be used
+   201: mip =     not found yet >=              -inf        (1; 0)
+   563: >>>>>  -1.731959124e+00 >=  -1.731959124e+00 < 0.1% (359; 0)
+   563: mip =  -1.731959124e+00 >=     tree is empty   0.0% (0; 717)
INTEGER OPTIMAL SOLUTION FOUND
Time used:   0.5 secs
Memory used: 2.8 Mb (2961333 bytes)
